13
Au(100) 3 layers 2x2 (=12 Au) + O on top site; a(Au)=4.078 A, cell 8.156 x 8.156 x 25 A
Au   0.000000   0.000000   0.000000
Au   4.078000   0.000000   0.000000
Au   0.000000   4.078000   0.000000
Au   4.078000   4.078000   0.000000
Au   2.039000   2.039000   2.039000
Au   6.117000   2.039000   2.039000
Au   2.039000   6.117000   2.039000
Au   6.117000   6.117000   2.039000
Au   0.000000   0.000000   4.078000
Au   4.078000   0.000000   4.078000
Au   0.000000   4.078000   4.078000
Au   4.078000   4.078000   4.078000
O    0.000000   0.000000   6.078000
